verifications/stream/logs/fix_mod16.opb
min: -11 x19 -145 x20 +728 x21 +109 x22 -623 x23 -234 x24 -30 x25 -535 x26 -151 x27 -42 x28 +1751 x29 -13 x30 -143 x31 +110 x32 -28 x33 +40 x34 -226 x35 -211 x36 +92 x37 +34 x38 +38 x39 -63 x40 +143 x41 +64 x42 -132 x43 +29 x44 -65 x45 -57 x46 -20 x47 +112 x48 +24 x49 +37 x50 -99 x51 -21 x52 -16 x53 -40 x54 +2 x55 +119 x56 -46 x57 -21 x58 +3 x59 +36 x60 -17 x61 +3 x62 +579 x63 -846 x64 +59 x65 +92 x66 +54 x67 +577 x68 -50 x69 -20 x70 -51 x71 -100 x72 +223 x73 -1479 x74 -863 x75 +468 x76 +354 x77 +227 x78 +356 x79 -154 x80 -67 x81 +106 x82 -205 x83 -613 x84 +897 x85 -62 x86 -106 x87 -42 x88 -613 x89 +43 x90 +37 x91 +20 x92 +110 x93 -364 x94 +215 x95 +102 x96 +75 x97 -13 x98 -12 x99 -62 x100 +103 x101 +15 x102 +15 x103 -155 x104 +25 x105 -1 x106 +49 x107 +18 x108 +1098 x109 +2522 x110 -114 x111 -441 x112 -273 x113 +1108 x114 +89 x115 +72 x116 +134 x117 +240 x118 -951 x119 +455 x120 +986 x121 +17 x122 +62 x123 +132 x124 -16 x125 -28 x126 +64 x127 +62 x128 +13 x129 -20 x130 +31 x131 +23 x132 -60 x133 +51 x134 +60 x135 -21 x136 +211 x137 +139 x138 -474 x139 +23 x140 +8 x141 +408 x142 +139 x143 -13 x144 +23 x145 -280 x146 -57 x147 +367 x148 -72 x149 -328 x150 +189 x151 -1091 x152 -8 x153 -217 x154 +340 x155 +31 x156 -418 x157 +192 x158 -216 x159 -32 x160 +197 x161 -126 x162 +22 x163 -249 x164 -18 x165 +292 x166 +53 x167 +780 x168 +14 x169 -41 x170 ;
+1 x3 >= 1;
+1 x4 >= 1;
+1 x5 >= 1;
-1 x6 >= 0;
+1 x7 >= 1;
+1 x8 >= 1;
+1 x9 >= 1;
+1 x10 >= 1;
+1 x1 >= 1;
-1 x2 +1 x1 -1 x19 >= -1;
+1 x2 -1 x1 -1 x19 >= -1;
-1 x3 +1 x1 -1 x20 >= -1;
+1 x3 -1 x1 -1 x20 >= -1;
-1 x3 -1 x2 +1 x21 >= -1;
+1 x3 +1 x2 +1 x21 >= 1;
-1 x4 -1 x1 +1 x22 >= -1;
+1 x4 +1 x1 +1 x22 >= 1;
-1 x4 +1 x2 -1 x23 >= -1;
+1 x4 -1 x2 -1 x23 >= -1;
-1 x4 +1 x3 -1 x24 >= -1;
+1 x4 -1 x3 -1 x24 >= -1;
-1 x5 +1 x1 -1 x25 >= -1;
+1 x5 -1 x1 -1 x25 >= -1;
-1 x5 +1 x2 -1 x26 >= -1;
+1 x5 -1 x2 -1 x26 >= -1;
-1 x5 +1 x3 -1 x27 >= -1;
+1 x5 -1 x3 -1 x27 >= -1;
-1 x5 +1 x4 -1 x28 >= -1;
+1 x5 -1 x4 -1 x28 >= -1;
-1 x6 -1 x1 +1 x29 >= -1;
+1 x6 +1 x1 +1 x29 >= 1;
-1 x6 +1 x2 -1 x30 >= -1;
+1 x6 -1 x2 -1 x30 >= -1;
-1 x6 +1 x3 -1 x31 >= -1;
+1 x6 -1 x3 -1 x31 >= -1;
-1 x6 -1 x4 +1 x32 >= -1;
+1 x6 +1 x4 +1 x32 >= 1;
-1 x6 +1 x5 -1 x33 >= -1;
+1 x6 -1 x5 -1 x33 >= -1;
-1 x7 -1 x1 +1 x34 >= -1;
+1 x7 +1 x1 +1 x34 >= 1;
-1 x7 +1 x2 -1 x35 >= -1;
+1 x7 -1 x2 -1 x35 >= -1;
-1 x7 +1 x3 -1 x36 >= -1;
+1 x7 -1 x3 -1 x36 >= -1;
-1 x7 -1 x4 +1 x37 >= -1;
+1 x7 +1 x4 +1 x37 >= 1;
-1 x7 -1 x5 +1 x38 >= -1;
+1 x7 +1 x5 +1 x38 >= 1;
-1 x7 -1 x6 +1 x39 >= -1;
+1 x7 +1 x6 +1 x39 >= 1;
-1 x8 +1 x1 -1 x40 >= -1;
+1 x8 -1 x1 -1 x40 >= -1;
-1 x8 -1 x2 +1 x41 >= -1;
+1 x8 +1 x2 +1 x41 >= 1;
-1 x8 -1 x3 +1 x42 >= -1;
+1 x8 +1 x3 +1 x42 >= 1;
-1 x8 +1 x4 -1 x43 >= -1;
+1 x8 -1 x4 -1 x43 >= -1;
-1 x8 -1 x5 +1 x44 >= -1;
+1 x8 +1 x5 +1 x44 >= 1;
-1 x8 +1 x6 -1 x45 >= -1;
+1 x8 -1 x6 -1 x45 >= -1;
-1 x8 +1 x7 -1 x46 >= -1;
+1 x8 -1 x7 -1 x46 >= -1;
-1 x9 +1 x1 -1 x47 >= -1;
+1 x9 -1 x1 -1 x47 >= -1;
-1 x9 -1 x2 +1 x48 >= -1;
+1 x9 +1 x2 +1 x48 >= 1;
-1 x9 -1 x3 +1 x49 >= -1;
+1 x9 +1 x3 +1 x49 >= 1;
-1 x9 -1 x4 +1 x50 >= -1;
+1 x9 +1 x4 +1 x50 >= 1;
-1 x9 +1 x5 -1 x51 >= -1;
+1 x9 -1 x5 -1 x51 >= -1;
-1 x9 +1 x6 -1 x52 >= -1;
+1 x9 -1 x6 -1 x52 >= -1;
-1 x9 +1 x7 -1 x53 >= -1;
+1 x9 -1 x7 -1 x53 >= -1;
-1 x9 +1 x8 -1 x54 >= -1;
+1 x9 -1 x8 -1 x54 >= -1;
-1 x10 -1 x1 +1 x55 >= -1;
+1 x10 +1 x1 +1 x55 >= 1;
-1 x10 -1 x2 +1 x56 >= -1;
+1 x10 +1 x2 +1 x56 >= 1;
-1 x10 +1 x3 -1 x57 >= -1;
+1 x10 -1 x3 -1 x57 >= -1;
-1 x10 +1 x5 -1 x58 >= -1;
+1 x10 -1 x5 -1 x58 >= -1;
-1 x10 -1 x6 +1 x59 >= -1;
+1 x10 +1 x6 +1 x59 >= 1;
-1 x10 -1 x7 +1 x60 >= -1;
+1 x10 +1 x7 +1 x60 >= 1;
-1 x10 +1 x8 -1 x61 >= -1;
+1 x10 -1 x8 -1 x61 >= -1;
-1 x10 -1 x9 +1 x62 >= -1;
+1 x10 +1 x9 +1 x62 >= 1;
-1 x11 -1 x1 +1 x63 >= -1;
+1 x11 +1 x1 +1 x63 >= 1;
-1 x11 +1 x2 -1 x64 >= -1;
+1 x11 -1 x2 -1 x64 >= -1;
-1 x11 -1 x3 +1 x65 >= -1;
+1 x11 +1 x3 +1 x65 >= 1;
-1 x11 -1 x4 +1 x66 >= -1;
+1 x11 +1 x4 +1 x66 >= 1;
-1 x11 -1 x5 +1 x67 >= -1;
+1 x11 +1 x5 +1 x67 >= 1;
-1 x11 -1 x6 +1 x68 >= -1;
+1 x11 +1 x6 +1 x68 >= 1;
-1 x11 +1 x7 -1 x69 >= -1;
+1 x11 -1 x7 -1 x69 >= -1;
-1 x11 +1 x8 -1 x70 >= -1;
+1 x11 -1 x8 -1 x70 >= -1;
-1 x11 +1 x9 -1 x71 >= -1;
+1 x11 -1 x9 -1 x71 >= -1;
-1 x11 +1 x10 -1 x72 >= -1;
+1 x11 -1 x10 -1 x72 >= -1;
-1 x12 -1 x1 +1 x73 >= -1;
+1 x12 +1 x1 +1 x73 >= 1;
-1 x12 +1 x2 -1 x74 >= -1;
+1 x12 -1 x2 -1 x74 >= -1;
-1 x12 +1 x3 -1 x75 >= -1;
+1 x12 -1 x3 -1 x75 >= -1;
-1 x12 -1 x4 +1 x76 >= -1;
+1 x12 +1 x4 +1 x76 >= 1;
-1 x12 -1 x5 +1 x77 >= -1;
+1 x12 +1 x5 +1 x77 >= 1;
-1 x12 -1 x6 +1 x78 >= -1;
+1 x12 +1 x6 +1 x78 >= 1;
-1 x12 -1 x7 +1 x79 >= -1;
+1 x12 +1 x7 +1 x79 >= 1;
-1 x12 +1 x8 -1 x80 >= -1;
+1 x12 -1 x8 -1 x80 >= -1;
-1 x12 +1 x9 -1 x81 >= -1;
+1 x12 -1 x9 -1 x81 >= -1;
-1 x12 -1 x10 +1 x82 >= -1;
+1 x12 +1 x10 +1 x82 >= 1;
-1 x12 +1 x11 -1 x83 >= -1;
+1 x12 -1 x11 -1 x83 >= -1;
-1 x13 +1 x1 -1 x84 >= -1;
+1 x13 -1 x1 -1 x84 >= -1;
-1 x13 -1 x2 +1 x85 >= -1;
+1 x13 +1 x2 +1 x85 >= 1;
-1 x13 +1 x3 -1 x86 >= -1;
+1 x13 -1 x3 -1 x86 >= -1;
-1 x13 +1 x4 -1 x87 >= -1;
+1 x13 -1 x4 -1 x87 >= -1;
-1 x13 +1 x5 -1 x88 >= -1;
+1 x13 -1 x5 -1 x88 >= -1;
-1 x13 +1 x6 -1 x89 >= -1;
+1 x13 -1 x6 -1 x89 >= -1;
-1 x13 -1 x7 +1 x90 >= -1;
+1 x13 +1 x7 +1 x90 >= 1;
-1 x13 -1 x8 +1 x91 >= -1;
+1 x13 +1 x8 +1 x91 >= 1;
-1 x13 -1 x9 +1 x92 >= -1;
+1 x13 +1 x9 +1 x92 >= 1;
-1 x13 -1 x10 +1 x93 >= -1;
+1 x13 +1 x10 +1 x93 >= 1;
-1 x13 +1 x11 -1 x94 >= -1;
+1 x13 -1 x11 -1 x94 >= -1;
-1 x13 -1 x12 +1 x95 >= -1;
+1 x13 +1 x12 +1 x95 >= 1;
-1 x14 -1 x1 +1 x96 >= -1;
+1 x14 +1 x1 +1 x96 >= 1;
-1 x14 -1 x2 +1 x97 >= -1;
+1 x14 +1 x2 +1 x97 >= 1;
-1 x14 +1 x3 -1 x98 >= -1;
+1 x14 -1 x3 -1 x98 >= -1;
-1 x14 +1 x4 -1 x99 >= -1;
+1 x14 -1 x4 -1 x99 >= -1;
-1 x14 +1 x5 -1 x100 >= -1;
+1 x14 -1 x5 -1 x100 >= -1;
-1 x14 -1 x6 +1 x101 >= -1;
+1 x14 +1 x6 +1 x101 >= 1;
-1 x14 -1 x7 +1 x102 >= -1;
+1 x14 +1 x7 +1 x102 >= 1;
-1 x14 -1 x8 +1 x103 >= -1;
+1 x14 +1 x8 +1 x103 >= 1;
-1 x14 +1 x9 -1 x104 >= -1;
+1 x14 -1 x9 -1 x104 >= -1;
-1 x14 -1 x10 +1 x105 >= -1;
+1 x14 +1 x10 +1 x105 >= 1;
-1 x14 +1 x11 -1 x106 >= -1;
+1 x14 -1 x11 -1 x106 >= -1;
-1 x14 -1 x12 +1 x107 >= -1;
+1 x14 +1 x12 +1 x107 >= 1;
-1 x14 -1 x13 +1 x108 >= -1;
+1 x14 +1 x13 +1 x108 >= 1;
-1 x15 -1 x1 +1 x109 >= -1;
+1 x15 +1 x1 +1 x109 >= 1;
-1 x15 -1 x2 +1 x110 >= -1;
+1 x15 +1 x2 +1 x110 >= 1;
-1 x15 +1 x3 -1 x111 >= -1;
+1 x15 -1 x3 -1 x111 >= -1;
-1 x15 +1 x4 -1 x112 >= -1;
+1 x15 -1 x4 -1 x112 >= -1;
-1 x15 +1 x5 -1 x113 >= -1;
+1 x15 -1 x5 -1 x113 >= -1;
-1 x15 -1 x6 +1 x114 >= -1;
+1 x15 +1 x6 +1 x114 >= 1;
-1 x15 -1 x7 +1 x115 >= -1;
+1 x15 +1 x7 +1 x115 >= 1;
-1 x15 -1 x8 +1 x116 >= -1;
+1 x15 +1 x8 +1 x116 >= 1;
-1 x15 -1 x9 +1 x117 >= -1;
+1 x15 +1 x9 +1 x117 >= 1;
-1 x15 -1 x10 +1 x118 >= -1;
+1 x15 +1 x10 +1 x118 >= 1;
-1 x15 +1 x11 -1 x119 >= -1;
+1 x15 -1 x11 -1 x119 >= -1;
-1 x15 -1 x12 +1 x120 >= -1;
+1 x15 +1 x12 +1 x120 >= 1;
-1 x15 -1 x13 +1 x121 >= -1;
+1 x15 +1 x13 +1 x121 >= 1;
-1 x15 -1 x14 +1 x122 >= -1;
+1 x15 +1 x14 +1 x122 >= 1;
-1 x16 -1 x1 +1 x123 >= -1;
+1 x16 +1 x1 +1 x123 >= 1;
-1 x16 -1 x2 +1 x124 >= -1;
+1 x16 +1 x2 +1 x124 >= 1;
-1 x16 +1 x3 -1 x125 >= -1;
+1 x16 -1 x3 -1 x125 >= -1;
-1 x16 +1 x4 -1 x126 >= -1;
+1 x16 -1 x4 -1 x126 >= -1;
-1 x16 -1 x5 +1 x127 >= -1;
+1 x16 +1 x5 +1 x127 >= 1;
-1 x16 -1 x6 +1 x128 >= -1;
+1 x16 +1 x6 +1 x128 >= 1;
-1 x16 -1 x7 +1 x129 >= -1;
+1 x16 +1 x7 +1 x129 >= 1;
-1 x16 +1 x8 -1 x130 >= -1;
+1 x16 -1 x8 -1 x130 >= -1;
-1 x16 -1 x9 +1 x131 >= -1;
+1 x16 +1 x9 +1 x131 >= 1;
-1 x16 -1 x10 +1 x132 >= -1;
+1 x16 +1 x10 +1 x132 >= 1;
-1 x16 +1 x11 -1 x133 >= -1;
+1 x16 -1 x11 -1 x133 >= -1;
-1 x16 -1 x12 +1 x134 >= -1;
+1 x16 +1 x12 +1 x134 >= 1;
-1 x16 -1 x13 +1 x135 >= -1;
+1 x16 +1 x13 +1 x135 >= 1;
-1 x16 +1 x14 -1 x136 >= -1;
+1 x16 -1 x14 -1 x136 >= -1;
-1 x16 -1 x15 +1 x137 >= -1;
+1 x16 +1 x15 +1 x137 >= 1;
-1 x17 -1 x1 +1 x138 >= -1;
+1 x17 +1 x1 +1 x138 >= 1;
-1 x17 +1 x2 -1 x139 >= -1;
+1 x17 -1 x2 -1 x139 >= -1;
-1 x17 -1 x3 +1 x140 >= -1;
+1 x17 +1 x3 +1 x140 >= 1;
-1 x17 -1 x4 +1 x141 >= -1;
+1 x17 +1 x4 +1 x141 >= 1;
-1 x17 -1 x5 +1 x142 >= -1;
+1 x17 +1 x5 +1 x142 >= 1;
-1 x17 -1 x6 +1 x143 >= -1;
+1 x17 +1 x6 +1 x143 >= 1;
-1 x17 +1 x7 -1 x144 >= -1;
+1 x17 -1 x7 -1 x144 >= -1;
-1 x17 -1 x8 +1 x145 >= -1;
+1 x17 +1 x8 +1 x145 >= 1;
-1 x17 +1 x9 -1 x146 >= -1;
+1 x17 -1 x9 -1 x146 >= -1;
-1 x17 +1 x10 -1 x147 >= -1;
+1 x17 -1 x10 -1 x147 >= -1;
-1 x17 -1 x11 +1 x148 >= -1;
+1 x17 +1 x11 +1 x148 >= 1;
-1 x17 +1 x12 -1 x149 >= -1;
+1 x17 -1 x12 -1 x149 >= -1;
-1 x17 +1 x13 -1 x150 >= -1;
+1 x17 -1 x13 -1 x150 >= -1;
-1 x17 -1 x14 +1 x151 >= -1;
+1 x17 +1 x14 +1 x151 >= 1;
-1 x17 +1 x15 -1 x152 >= -1;
+1 x17 -1 x15 -1 x152 >= -1;
-1 x17 +1 x16 -1 x153 >= -1;
+1 x17 -1 x16 -1 x153 >= -1;
-1 x18 +1 x1 -1 x154 >= -1;
+1 x18 -1 x1 -1 x154 >= -1;
-1 x18 -1 x2 +1 x155 >= -1;
+1 x18 +1 x2 +1 x155 >= 1;
-1 x18 -1 x3 +1 x156 >= -1;
+1 x18 +1 x3 +1 x156 >= 1;
-1 x18 +1 x4 -1 x157 >= -1;
+1 x18 -1 x4 -1 x157 >= -1;
-1 x18 -1 x5 +1 x158 >= -1;
+1 x18 +1 x5 +1 x158 >= 1;
-1 x18 +1 x6 -1 x159 >= -1;
+1 x18 -1 x6 -1 x159 >= -1;
-1 x18 +1 x7 -1 x160 >= -1;
+1 x18 -1 x7 -1 x160 >= -1;
-1 x18 -1 x8 +1 x161 >= -1;
+1 x18 +1 x8 +1 x161 >= 1;
-1 x18 +1 x9 -1 x162 >= -1;
+1 x18 -1 x9 -1 x162 >= -1;
-1 x18 -1 x10 +1 x163 >= -1;
+1 x18 +1 x10 +1 x163 >= 1;
-1 x18 +1 x11 -1 x164 >= -1;
+1 x18 -1 x11 -1 x164 >= -1;
-1 x18 +1 x12 -1 x165 >= -1;
+1 x18 -1 x12 -1 x165 >= -1;
-1 x18 -1 x13 +1 x166 >= -1;
+1 x18 +1 x13 +1 x166 >= 1;
-1 x18 -1 x14 +1 x167 >= -1;
+1 x18 +1 x14 +1 x167 >= 1;
-1 x18 -1 x15 +1 x168 >= -1;
+1 x18 +1 x15 +1 x168 >= 1;
-1 x18 -1 x16 +1 x169 >= -1;
+1 x18 +1 x16 +1 x169 >= 1;
-1 x18 +1 x17 -1 x170 >= -1;
+1 x18 -1 x17 -1 x170 >= -1;
