verifications/stream/logs/fix_mod16.sol
# Objective value = -2432
x19 1
x20 1
x21 1
x22 1
x23 1
x24 1
x25 1
x26 1
x27 1
x28 1
x29 0
x30 0
x31 0
x32 0
x33 0
x34 1
x35 1
x36 1
x37 1
x38 1
x39 0
x40 1
x41 1
x42 1
x43 1
x44 1
x45 0
x46 1
x47 1
x48 1
x49 1
x50 1
x51 1
x52 0
x53 1
x54 1
x55 1
x56 1
x57 1
x58 1
x59 0
x60 1
x61 1
x62 1
x63 1
x64 1
x65 1
x66 1
x67 1
x68 0
x69 1
x70 1
x71 1
x72 1
x73 1
x74 1
x75 1
x76 1
x77 1
x78 0
x79 1
x80 1
x81 1
x82 1
x83 1
x84 0
x85 0
x86 0
x87 0
x88 0
x89 1
x90 0
x91 0
x92 0
x93 0
x94 0
x95 0
x96 1
x97 1
x98 1
x99 1
x100 1
x101 0
x102 1
x103 1
x104 1
x105 1
x106 1
x107 1
x108 0
x109 0
x110 0
x111 0
x112 0
x113 0
x114 1
x115 0
x116 0
x117 0
x118 0
x119 0
x120 0
x121 1
x122 0
x123 1
x124 1
x125 1
x126 1
x127 1
x128 0
x129 1
x130 1
x131 1
x132 1
x133 1
x134 1
x135 0
x136 1
x137 0
x138 0
x139 0
x140 0
x141 0
x142 0
x143 1
x144 0
x145 0
x146 0
x147 0
x148 0
x149 0
x150 1
x151 0
x152 1
x153 0
x154 1
x155 1
x156 1
x157 1
x158 1
x159 0
x160 1
x161 1
x162 1
x163 1
x164 1
x165 1
x166 0
x167 1
x168 0
x169 1
x170 0
x3 1
x4 1
x5 1
x6 0
x7 1
x8 1
x9 1
x10 1
x1 1
x2 1
x11 1
x12 1
x13 0
x14 1
x15 0
x16 1
x17 0
x18 1
